NAME : POMORSKIE-n10
COMMENT : Auto generated by mgrVRP
TYPE : CVRP
DIMENSION : 10
EDGE_WEIGHT_TYPE : EUC_2D
CAPACITY : 200.0
NODE_COORD_SECTION
1 54.10538784319366 19.174926472964188
2 54.21982760624439 18.40005086826734
3 54.23335168572459 17.17057276607745
4 54.68113027564991 17.519711257403753
5 54.255539302232265 17.813233228584476
6 53.93228451202 17.062135561580952
7 54.44433370583918 17.418984558071205
8 54.36245410138523 17.143853865176755
9 53.91409443499293 17.699822699776227
10 54.08168683517278 18.037667170691392
11 54.07411134617174 17.678044674982328
DEMAND_SECTION
1 0
2 35.0
3 59.0
4 53.0
5 57.0
6 53.0
7 43.0
8 49.0
9 55.0
10 30.0
11 54.0
DEPOT_SECTION
1
-1
EOF
